(declare-fun lit_b59 () (_ FloatingPoint 8 24))
(assert (fp.isNormal lit_b59))
(declare-fun lit_b11 () (_ FloatingPoint 8 24))
(assert (fp.isNormal lit_b11))
(declare-fun lit_b53 () (_ FloatingPoint 8 24))
(assert (fp.isNormal lit_b53))
(declare-fun lit_b26 () (_ FloatingPoint 8 24))
(assert (fp.isNormal lit_b26))
(declare-fun lit_b77 () (_ FloatingPoint 8 24))
(assert (fp.isNormal lit_b77))
(declare-fun lit_b89 () (_ FloatingPoint 8 24))
(assert (fp.isNormal lit_b89))
(declare-fun lit_b71 () (_ FloatingPoint 8 24))
(assert (fp.isNormal lit_b71))
(declare-fun lit_b32 () (_ FloatingPoint 8 24))
(assert (fp.isNormal lit_b32))
(declare-fun lit_b92 () (_ FloatingPoint 8 24))
(assert (fp.isNormal lit_b92))
(declare-fun lit_b17 () (_ FloatingPoint 8 24))
(assert (fp.isNormal lit_b17))
(declare-fun lit_b65 () (_ FloatingPoint 8 24))
(assert (fp.isNormal lit_b65))
(declare-fun lit_b10 () (_ FloatingPoint 8 24))
(assert (fp.isNormal lit_b10))
(declare-fun lit_b41 () (_ FloatingPoint 8 24))
(assert (fp.isNormal lit_b41))
(declare-fun lit_b29 () (_ FloatingPoint 8 24))
(assert (fp.isNormal lit_b29))
(declare-fun lit_b101 () (_ FloatingPoint 8 24))
(assert (fp.isNormal lit_b101))
(declare-fun lit_b35 () (_ FloatingPoint 8 24))
(assert (fp.isNormal lit_b35))
(declare-fun lit_b74 () (_ FloatingPoint 8 24))
(assert (fp.isNormal lit_b74))
(declare-fun lit_b98 () (_ FloatingPoint 8 24))
(assert (fp.isNormal lit_b98))
(declare-fun lit_b86 () (_ FloatingPoint 8 24))
(assert (fp.isNormal lit_b86))
(declare-fun lit_b80 () (_ FloatingPoint 8 24))
(assert (fp.isNormal lit_b80))
(declare-fun lit_b23 () (_ FloatingPoint 8 24))
(assert (fp.isNormal lit_b23))
(declare-fun lit_b95 () (_ FloatingPoint 8 24))
(assert (fp.isNormal lit_b95))
(declare-fun lit_b50 () (_ FloatingPoint 8 24))
(assert (fp.isNormal lit_b50))
(declare-fun lit_b14 () (_ FloatingPoint 8 24))
(assert (fp.isNormal lit_b14))
(declare-fun lit_b38 () (_ FloatingPoint 8 24))
(assert (fp.isNormal lit_b38))
(declare-fun lit_b56 () (_ FloatingPoint 8 24))
(assert (fp.isNormal lit_b56))
(declare-fun lit_b47 () (_ FloatingPoint 8 24))
(assert (fp.isNormal lit_b47))
(declare-fun lit_b20 () (_ FloatingPoint 8 24))
(assert (fp.isNormal lit_b20))
(declare-fun lit_b44 () (_ FloatingPoint 8 24))
(assert (fp.isNormal lit_b44))
(declare-fun lit_b83 () (_ FloatingPoint 8 24))
(assert (fp.isNormal lit_b83))
(declare-fun lit_b68 () (_ FloatingPoint 8 24))
(assert (fp.isNormal lit_b68))
(declare-fun lit_b62 () (_ FloatingPoint 8 24))
(assert (fp.isNormal lit_b62))
(define-fun const_0 () (_ FloatingPoint 8 24) ((_ to_fp 8 24) RTN 0.000000000000000000000000000000000000000000000000000000000000000000000000000000000000000000000000000000000000000000000000000000000000000000000000000000000000000000000))
(define-fun lit_9 () (_ FloatingPoint 8 24) (fp.add RNE lit_b11 const_0))
(assert (fp.isNormal lit_9))
(define-fun lit_10 () (_ FloatingPoint 8 24) (fp.add RNE lit_b10 const_0))
(assert (fp.isNormal lit_10))
(define-fun lit_11 () Bool (fp.lt lit_9 lit_10))
(define-fun lit_12 () (_ FloatingPoint 8 24) (fp.div RNE lit_10 lit_9))
(assert (fp.isNormal lit_12))
(define-fun lit_13 () (_ FloatingPoint 8 24) (fp.add RNE lit_b14 const_0))
(assert (fp.isNormal lit_13))
(define-fun lit_14 () (_ FloatingPoint 8 24) (fp.div RNE lit_12 lit_13))
(assert (fp.isNormal lit_14))
(define-fun lit_15 () (_ FloatingPoint 8 24) (fp.add RNE lit_b17 const_0))
(assert (fp.isNormal lit_15))
(define-fun lit_16 () (_ FloatingPoint 8 24) (fp.div RNE lit_14 lit_15))
(assert (fp.isNormal lit_16))
(define-fun lit_17 () (_ FloatingPoint 8 24) (fp.add RNE lit_b20 const_0))
(assert (fp.isNormal lit_17))
(define-fun lit_18 () (_ FloatingPoint 8 24) (fp.div RNE lit_16 lit_17))
(assert (fp.isNormal lit_18))
(define-fun lit_19 () (_ FloatingPoint 8 24) (fp.add RNE lit_b23 const_0))
(assert (fp.isNormal lit_19))
(define-fun lit_20 () (_ FloatingPoint 8 24) (fp.div RNE lit_18 lit_19))
(assert (fp.isNormal lit_20))
(define-fun lit_21 () (_ FloatingPoint 8 24) (fp.add RNE lit_b26 const_0))
(assert (fp.isNormal lit_21))
(define-fun lit_22 () (_ FloatingPoint 8 24) (fp.div RNE lit_20 lit_21))
(assert (fp.isNormal lit_22))
(define-fun lit_23 () (_ FloatingPoint 8 24) (fp.add RNE lit_b29 const_0))
(assert (fp.isNormal lit_23))
(define-fun lit_24 () (_ FloatingPoint 8 24) (fp.div RNE lit_22 lit_23))
(assert (fp.isNormal lit_24))
(define-fun lit_25 () (_ FloatingPoint 8 24) (fp.add RNE lit_b32 const_0))
(assert (fp.isNormal lit_25))
(define-fun lit_26 () (_ FloatingPoint 8 24) (fp.div RNE lit_24 lit_25))
(assert (fp.isNormal lit_26))
(define-fun lit_27 () (_ FloatingPoint 8 24) (fp.add RNE lit_b35 const_0))
(assert (fp.isNormal lit_27))
(define-fun lit_28 () (_ FloatingPoint 8 24) (fp.div RNE lit_26 lit_27))
(assert (fp.isNormal lit_28))
(define-fun lit_29 () (_ FloatingPoint 8 24) (fp.add RNE lit_b38 const_0))
(assert (fp.isNormal lit_29))
(define-fun lit_30 () (_ FloatingPoint 8 24) (fp.div RNE lit_28 lit_29))
(assert (fp.isNormal lit_30))
(define-fun lit_31 () (_ FloatingPoint 8 24) (fp.add RNE lit_b41 const_0))
(assert (fp.isNormal lit_31))
(define-fun lit_32 () (_ FloatingPoint 8 24) (fp.div RNE lit_30 lit_31))
(assert (fp.isNormal lit_32))
(define-fun lit_33 () (_ FloatingPoint 8 24) (fp.add RNE lit_b44 const_0))
(assert (fp.isNormal lit_33))
(define-fun lit_34 () (_ FloatingPoint 8 24) (fp.div RNE lit_32 lit_33))
(assert (fp.isNormal lit_34))
(define-fun lit_35 () (_ FloatingPoint 8 24) (fp.add RNE lit_b47 const_0))
(assert (fp.isNormal lit_35))
(define-fun lit_36 () (_ FloatingPoint 8 24) (fp.div RNE lit_34 lit_35))
(assert (fp.isNormal lit_36))
(define-fun lit_37 () (_ FloatingPoint 8 24) (fp.add RNE lit_b50 const_0))
(assert (fp.isNormal lit_37))
(define-fun lit_38 () (_ FloatingPoint 8 24) (fp.div RNE lit_36 lit_37))
(assert (fp.isNormal lit_38))
(define-fun lit_39 () (_ FloatingPoint 8 24) (fp.add RNE lit_b53 const_0))
(assert (fp.isNormal lit_39))
(define-fun lit_40 () (_ FloatingPoint 8 24) (fp.div RNE lit_38 lit_39))
(assert (fp.isNormal lit_40))
(define-fun lit_41 () (_ FloatingPoint 8 24) (fp.add RNE lit_b56 const_0))
(assert (fp.isNormal lit_41))
(define-fun lit_42 () (_ FloatingPoint 8 24) (fp.div RNE lit_40 lit_41))
(assert (fp.isNormal lit_42))
(define-fun lit_43 () (_ FloatingPoint 8 24) (fp.add RNE lit_b59 const_0))
(assert (fp.isNormal lit_43))
(define-fun lit_44 () (_ FloatingPoint 8 24) (fp.div RNE lit_42 lit_43))
(assert (fp.isNormal lit_44))
(define-fun lit_45 () (_ FloatingPoint 8 24) (fp.add RNE lit_b62 const_0))
(assert (fp.isNormal lit_45))
(define-fun lit_46 () (_ FloatingPoint 8 24) (fp.div RNE lit_44 lit_45))
(assert (fp.isNormal lit_46))
(define-fun lit_47 () (_ FloatingPoint 8 24) (fp.add RNE lit_b65 const_0))
(assert (fp.isNormal lit_47))
(define-fun lit_48 () (_ FloatingPoint 8 24) (fp.div RNE lit_46 lit_47))
(assert (fp.isNormal lit_48))
(define-fun lit_49 () (_ FloatingPoint 8 24) (fp.add RNE lit_b68 const_0))
(assert (fp.isNormal lit_49))
(define-fun lit_50 () (_ FloatingPoint 8 24) (fp.div RNE lit_48 lit_49))
(assert (fp.isNormal lit_50))
(define-fun lit_51 () (_ FloatingPoint 8 24) (fp.add RNE lit_b71 const_0))
(assert (fp.isNormal lit_51))
(define-fun lit_52 () (_ FloatingPoint 8 24) (fp.div RNE lit_50 lit_51))
(assert (fp.isNormal lit_52))
(define-fun lit_53 () (_ FloatingPoint 8 24) (fp.add RNE lit_b74 const_0))
(assert (fp.isNormal lit_53))
(define-fun lit_54 () (_ FloatingPoint 8 24) (fp.div RNE lit_52 lit_53))
(assert (fp.isNormal lit_54))
(define-fun lit_55 () (_ FloatingPoint 8 24) (fp.add RNE lit_b77 const_0))
(assert (fp.isNormal lit_55))
(define-fun lit_56 () (_ FloatingPoint 8 24) (fp.div RNE lit_54 lit_55))
(assert (fp.isNormal lit_56))
(define-fun lit_57 () (_ FloatingPoint 8 24) (fp.add RNE lit_b80 const_0))
(assert (fp.isNormal lit_57))
(define-fun lit_58 () (_ FloatingPoint 8 24) (fp.div RNE lit_56 lit_57))
(assert (fp.isNormal lit_58))
(define-fun lit_59 () (_ FloatingPoint 8 24) (fp.add RNE lit_b83 const_0))
(assert (fp.isNormal lit_59))
(define-fun lit_60 () (_ FloatingPoint 8 24) (fp.div RNE lit_58 lit_59))
(assert (fp.isNormal lit_60))
(define-fun lit_61 () (_ FloatingPoint 8 24) (fp.add RNE lit_b86 const_0))
(assert (fp.isNormal lit_61))
(define-fun lit_62 () (_ FloatingPoint 8 24) (fp.div RNE lit_60 lit_61))
(assert (fp.isNormal lit_62))
(define-fun lit_63 () (_ FloatingPoint 8 24) (fp.add RNE lit_b89 const_0))
(assert (fp.isNormal lit_63))
(define-fun lit_64 () (_ FloatingPoint 8 24) (fp.div RNE lit_62 lit_63))
(assert (fp.isNormal lit_64))
(define-fun lit_65 () (_ FloatingPoint 8 24) (fp.add RNE lit_b92 const_0))
(assert (fp.isNormal lit_65))
(define-fun lit_66 () (_ FloatingPoint 8 24) (fp.div RNE lit_64 lit_65))
(assert (fp.isNormal lit_66))
(define-fun lit_67 () (_ FloatingPoint 8 24) (fp.add RNE lit_b95 const_0))
(assert (fp.isNormal lit_67))
(define-fun lit_68 () (_ FloatingPoint 8 24) (fp.div RNE lit_66 lit_67))
(assert (fp.isNormal lit_68))
(define-fun lit_69 () (_ FloatingPoint 8 24) (fp.add RNE lit_b98 const_0))
(assert (fp.isNormal lit_69))
(define-fun lit_70 () (_ FloatingPoint 8 24) (fp.div RNE lit_68 lit_69))
(assert (fp.isNormal lit_70))
(define-fun lit_71 () (_ FloatingPoint 8 24) (fp.add RNE lit_b101 const_0))
(assert (fp.isNormal lit_71))
(define-fun lit_72 () Bool (fp.lt lit_70 lit_71))
(define-fun lit_73 () Bool (and lit_11 lit_72))
(define-fun lit_74 () Bool (fp.leq lit_71 lit_9))
(define-fun lit_75 () Bool (and lit_73 lit_74))
(define-fun lit_76 () Bool (fp.lt lit_13 lit_12))
(define-fun lit_77 () Bool (and lit_75 lit_76))
(define-fun lit_78 () Bool (fp.leq lit_71 lit_13))
(define-fun lit_79 () Bool (and lit_77 lit_78))
(define-fun lit_80 () Bool (fp.lt lit_15 lit_14))
(define-fun lit_81 () Bool (and lit_79 lit_80))
(define-fun lit_82 () Bool (fp.leq lit_71 lit_15))
(define-fun lit_83 () Bool (and lit_81 lit_82))
(define-fun lit_84 () Bool (fp.lt lit_17 lit_16))
(define-fun lit_85 () Bool (and lit_83 lit_84))
(define-fun lit_86 () Bool (fp.leq lit_71 lit_17))
(define-fun lit_87 () Bool (and lit_85 lit_86))
(define-fun lit_88 () Bool (fp.lt lit_19 lit_18))
(define-fun lit_89 () Bool (and lit_87 lit_88))
(define-fun lit_90 () Bool (fp.leq lit_71 lit_19))
(define-fun lit_91 () Bool (and lit_89 lit_90))
(define-fun lit_92 () Bool (fp.lt lit_21 lit_20))
(define-fun lit_93 () Bool (and lit_91 lit_92))
(define-fun lit_94 () Bool (fp.leq lit_71 lit_21))
(define-fun lit_95 () Bool (and lit_93 lit_94))
(define-fun lit_96 () Bool (fp.lt lit_23 lit_22))
(define-fun lit_97 () Bool (and lit_95 lit_96))
(define-fun lit_98 () Bool (fp.leq lit_71 lit_23))
(define-fun lit_99 () Bool (and lit_97 lit_98))
(define-fun lit_100 () Bool (fp.lt lit_25 lit_24))
(define-fun lit_101 () Bool (and lit_99 lit_100))
(define-fun lit_102 () Bool (fp.leq lit_71 lit_25))
(define-fun lit_103 () Bool (and lit_101 lit_102))
(define-fun lit_104 () Bool (fp.lt lit_27 lit_26))
(define-fun lit_105 () Bool (and lit_103 lit_104))
(define-fun lit_106 () Bool (fp.leq lit_71 lit_27))
(define-fun lit_107 () Bool (and lit_105 lit_106))
(define-fun lit_108 () Bool (fp.lt lit_29 lit_28))
(define-fun lit_109 () Bool (and lit_107 lit_108))
(define-fun lit_110 () Bool (fp.leq lit_71 lit_29))
(define-fun lit_111 () Bool (and lit_109 lit_110))
(define-fun lit_112 () Bool (fp.lt lit_31 lit_30))
(define-fun lit_113 () Bool (and lit_111 lit_112))
(define-fun lit_114 () Bool (fp.leq lit_71 lit_31))
(define-fun lit_115 () Bool (and lit_113 lit_114))
(define-fun lit_116 () Bool (fp.lt lit_33 lit_32))
(define-fun lit_117 () Bool (and lit_115 lit_116))
(define-fun lit_118 () Bool (fp.leq lit_71 lit_33))
(define-fun lit_119 () Bool (and lit_117 lit_118))
(define-fun lit_120 () Bool (fp.lt lit_35 lit_34))
(define-fun lit_121 () Bool (and lit_119 lit_120))
(define-fun lit_122 () Bool (fp.leq lit_71 lit_35))
(define-fun lit_123 () Bool (and lit_121 lit_122))
(define-fun lit_124 () Bool (fp.lt lit_37 lit_36))
(define-fun lit_125 () Bool (and lit_123 lit_124))
(define-fun lit_126 () Bool (fp.leq lit_71 lit_37))
(define-fun lit_127 () Bool (and lit_125 lit_126))
(define-fun lit_128 () Bool (fp.lt lit_39 lit_38))
(define-fun lit_129 () Bool (and lit_127 lit_128))
(define-fun lit_130 () Bool (fp.leq lit_71 lit_39))
(define-fun lit_131 () Bool (and lit_129 lit_130))
(define-fun lit_132 () Bool (fp.lt lit_41 lit_40))
(define-fun lit_133 () Bool (and lit_131 lit_132))
(define-fun lit_134 () Bool (fp.leq lit_71 lit_41))
(define-fun lit_135 () Bool (and lit_133 lit_134))
(define-fun lit_136 () Bool (fp.lt lit_43 lit_42))
(define-fun lit_137 () Bool (and lit_135 lit_136))
(define-fun lit_138 () Bool (fp.leq lit_71 lit_43))
(define-fun lit_139 () Bool (and lit_137 lit_138))
(define-fun lit_140 () Bool (fp.lt lit_45 lit_44))
(define-fun lit_141 () Bool (and lit_139 lit_140))
(define-fun lit_142 () Bool (fp.leq lit_71 lit_45))
(define-fun lit_143 () Bool (and lit_141 lit_142))
(define-fun lit_144 () Bool (fp.lt lit_47 lit_46))
(define-fun lit_145 () Bool (and lit_143 lit_144))
(define-fun lit_146 () Bool (fp.leq lit_71 lit_47))
(define-fun lit_147 () Bool (and lit_145 lit_146))
(define-fun lit_148 () Bool (fp.lt lit_49 lit_48))
(define-fun lit_149 () Bool (and lit_147 lit_148))
(define-fun lit_150 () Bool (fp.leq lit_71 lit_49))
(define-fun lit_151 () Bool (and lit_149 lit_150))
(define-fun lit_152 () Bool (fp.lt lit_51 lit_50))
(define-fun lit_153 () Bool (and lit_151 lit_152))
(define-fun lit_154 () Bool (fp.leq lit_71 lit_51))
(define-fun lit_155 () Bool (and lit_153 lit_154))
(define-fun lit_156 () Bool (fp.lt lit_53 lit_52))
(define-fun lit_157 () Bool (and lit_155 lit_156))
(define-fun lit_158 () Bool (fp.leq lit_71 lit_53))
(define-fun lit_159 () Bool (and lit_157 lit_158))
(define-fun lit_160 () Bool (fp.lt lit_55 lit_54))
(define-fun lit_161 () Bool (and lit_159 lit_160))
(define-fun lit_162 () Bool (fp.leq lit_71 lit_55))
(define-fun lit_163 () Bool (and lit_161 lit_162))
(define-fun lit_164 () Bool (fp.lt lit_57 lit_56))
(define-fun lit_165 () Bool (and lit_163 lit_164))
(define-fun lit_166 () Bool (fp.leq lit_71 lit_57))
(define-fun lit_167 () Bool (and lit_165 lit_166))
(define-fun lit_168 () Bool (fp.lt lit_59 lit_58))
(define-fun lit_169 () Bool (and lit_167 lit_168))
(define-fun lit_170 () Bool (fp.leq lit_71 lit_59))
(define-fun lit_171 () Bool (and lit_169 lit_170))
(define-fun lit_172 () Bool (fp.lt lit_61 lit_60))
(define-fun lit_173 () Bool (and lit_171 lit_172))
(define-fun lit_174 () Bool (fp.leq lit_71 lit_61))
(define-fun lit_175 () Bool (and lit_173 lit_174))
(define-fun lit_176 () Bool (fp.lt lit_63 lit_62))
(define-fun lit_177 () Bool (and lit_175 lit_176))
(define-fun lit_178 () Bool (fp.leq lit_71 lit_63))
(define-fun lit_179 () Bool (and lit_177 lit_178))
(define-fun lit_180 () Bool (fp.lt lit_65 lit_64))
(define-fun lit_181 () Bool (and lit_179 lit_180))
(define-fun lit_182 () Bool (fp.leq lit_71 lit_65))
(define-fun lit_183 () Bool (and lit_181 lit_182))
(define-fun lit_184 () Bool (fp.lt lit_67 lit_66))
(define-fun lit_185 () Bool (and lit_183 lit_184))
(define-fun lit_186 () Bool (fp.leq lit_71 lit_67))
(define-fun lit_187 () Bool (and lit_185 lit_186))
(define-fun lit_188 () Bool (fp.lt lit_69 lit_68))
(define-fun lit_189 () Bool (and lit_187 lit_188))
(define-fun lit_190 () Bool (fp.leq lit_71 lit_69))
(define-fun lit_191 () Bool (and lit_189 lit_190))
(define-fun const_1 () (_ FloatingPoint 8 24) ((_ to_fp 8 24) RTN 1.000000000000000000000000000000000000000000000000000000000000000000000000000000000000000000000000000000000000000000000000000000000000000000000000000000000000000000000))
(define-fun const_2 () (_ FloatingPoint 8 24) ((_ to_fp 8 24) RTN 2.000000000000000000000000000000000000000000000000000000000000000000000000000000000000000000000000000000000000000000000000000000000000000000000000000000000000000000000))
(define-fun prop_1 () Bool (fp.lt const_1 const_2))
(define-fun propexp () Bool (and lit_191 prop_1))
(assert propexp)
(apply fpa2bv_approx)
(check-sat)
;(get-model)
(exit)